100 100 100
50
72 13 86
76 18 76
16 84 99
51 83 54
88 11 70
74 4 75
78 13 99
2 31 31
96 17 91
85 77 53
74 38 82
45 45 39
84 33 98
70 18 67
90 6 82
70 30 70
99 32 72
74 83 6
73 68 10
95 66 2
88 26 95
82 6 93
79 39 73
70 44 66
76 21 73
81 97 7
79 11 70
71 78 23
88 86 64
91 29 74
83 25 96
77 77 75
98 27 81
70 25 98
97 22 85
74 50 97
71 40 74
100 73 63
96 44 75
80 21 86
90 48 85
20 48 11
90 50 97
62 70 82
13 22 5
77 5 82
68 50 90
45 73 86
77 43 80
7 95 98
